# Solution for model conservation_srl_ilp
# Objective value = 3.9783171088089069e+00
Z_99_0_0 0
Z_99_0_1 0
Z_99_0_2 1
Z_99_0_3 0
Z_99_7_0 0
Z_99_7_1 0
Z_99_7_2 0
Z_99_7_3 0
Z_99_3_0 1
Z_99_3_1 0
Z_99_3_2 0
Z_99_3_3 0
Z_99_10_0 0
Z_99_10_1 1
Z_99_10_2 0
Z_99_10_3 0
Z_99_4_0 0
Z_99_4_1 0
Z_99_4_2 0
Z_99_4_3 0
Z_99_9_0 0
Z_99_9_1 0
Z_99_9_2 0
Z_99_9_3 1
Z_99_6_0 0
Z_99_6_1 0
Z_99_6_2 0
Z_99_6_3 0
Z_99_8_0 0
Z_99_8_1 0
Z_99_8_2 0
Z_99_8_3 0
Z_99_5_0 0
Z_99_5_1 0
Z_99_5_2 0
Z_99_5_3 0
Z_99_1_0 0
Z_99_1_1 0
Z_99_1_2 0
Z_99_1_3 0
Z_99_2_0 0
Z_99_2_1 0
Z_99_2_2 0
Z_99_2_3 0
Z_439_0_0 0
Z_439_0_1 0
Z_439_0_2 1
Z_439_0_3 0
Z_439_1_0 0
Z_439_1_1 1
Z_439_1_2 0
Z_439_1_3 0
Z_439_2_0 1
Z_439_2_1 0
Z_439_2_2 0
Z_439_2_3 0
Z_473_0_0 0
Z_473_0_1 0
Z_473_0_2 1
Z_473_0_3 0
